RT is False
Default write of storage_offers_DA.csv just to have a file (but constraint should be inactive)
Reading model...
...model read.
creating competitive generators file...
...competitive generators recorded.
Loading data...
.. day-ahead data read.
Compiling instance...
...instance created.
Creating Offer Mitigation (model will solve as dispatch if TRUE)...
...storage offer mitigation file created
Converting model to MPEC...
...converted
MIP
NOTE: initial MIP solve with only storage competitive to get feasible solution
Solving...

Welcome to IBM(R) ILOG(R) CPLEX(R) Interactive Optimizer 12.9.0.0
  with Simplex, Mixed Integer & Barrier Optimizers
5725-A06 5725-A29 5724-Y48 5724-Y49 5724-Y54 5724-Y55 5655-Y21
Copyright IBM Corp. 1988, 2019.  All Rights Reserved.

Type 'help' for a list of available commands.
Type 'help' followed by a command name for more
information on commands.

CPLEX> Logfile 'cplex.log' closed.
Logfile 'C:\Users\Luke\Desktop\competitiveMPEC_1.16\logs\tmppqr2w8b2.cplex.log' open.
CPLEX> New value for parallel optimization mode: -1
CPLEX> New value for mixed integer optimality gap tolerance: 0.01
CPLEX> New value for feasibility tolerance: 1e-05
CPLEX> New value for deterministic time limit in ticks: 250000
CPLEX> Problem 'C:\Users\Luke\Desktop\competitiveMPEC_1.16\logs\tmp5mc1gns2.pyomo.lp' read.
Read time = 0.19 sec. (13.86 ticks)
CPLEX> Problem name         : C:\Users\Luke\Desktop\competitiveMPEC_1.16\logs\tmp5mc1gns2.pyomo.lp
Objective sense      : Maximize
Variables            :   53321  [Nneg: 49,  Box: 21806,  Free: 4368,
                                 Binary: 27098]
Objective nonzeros   :    8969
Linear constraints   :  122164  [Less: 40983,  Greater: 58612,  Equal: 22569]
  Nonzeros           :  288494
  RHS nonzeros       :   66971

Variables            : Min LB: -5000.000        Max UB: 5000.000       
Objective nonzeros   : Min   : 0.1000000        Max   : 722.0000       
Linear constraints   :
  Nonzeros           : Min   : 0.1000000        Max   : 2910000.       
  RHS nonzeros       : Min   : 0.1000000        Max   : 3000000.       
CPLEX> CPXPARAM_Parallel                                -1
CPXPARAM_Simplex_Tolerances_Feasibility          1.0000000000000001e-05
CPXPARAM_DetTimeLimit                            250000
CPXPARAM_MIP_Tolerances_MIPGap                   0.01
Tried aggregator 3 times.
MIP Presolve eliminated 88100 rows and 18948 columns.
MIP Presolve added 3342 rows and 0 columns.
MIP Presolve modified 24486 coefficients.
Aggregator did 12840 substitutions.
Reduced MIP has 24566 rows, 20969 columns, and 68847 nonzeros.
Reduced MIP has 8282 binaries, 0 generals, 0 SOSs, and 0 indicators.
Presolve time = 0.23 sec. (166.13 ticks)
Probing fixed 416 vars, tightened 6000 bounds.
Probing time = 0.06 sec. (20.76 ticks)
Tried aggregator 2 times.
MIP Presolve eliminated 932 rows and 837 columns.
MIP Presolve modified 3000 coefficients.
Aggregator did 44 substitutions.
Reduced MIP has 23590 rows, 20088 columns, and 66009 nonzeros.
Reduced MIP has 7864 binaries, 0 generals, 0 SOSs, and 0 indicators.
Presolve time = 0.11 sec. (91.46 ticks)
Probing fixed 0 vars, tightened 221 bounds.
Probing time = 0.08 sec. (21.52 ticks)
Clique table members: 38681.
MIP emphasis: balance optimality and feasibility.
MIP search method: dynamic search.
Parallel mode: opportunistic, using up to 24 threads.
Root relaxation solution time = 0.39 sec. (609.42 ticks)

        Nodes                                         Cuts/
   Node  Left     Objective  IInf  Best Integer    Best Bound    ItCnt     Gap

      0     0    24181.0837   124                  24181.0837     5756         
      0     0    24170.2102    23                    Cuts: 69     5796         
      0     0    24169.8256    15                    Cuts: 13     5807         
      0     0    24169.8256    13                     Cuts: 2     5810         
      0     0    24169.8256     9                  MIRcuts: 1     5811         
*     0+    0                        24009.0256    24169.8256             0.67%

Implied bound cuts applied:  1
Flow cuts applied:  32
Mixed integer rounding cuts applied:  2
Gomory fractional cuts applied:  15

Root node processing (before b&c):
  Real time             =    3.33 sec. (3082.13 ticks)
Parallel b&c, 24 threads:
  Real time             =    0.00 sec. (0.00 ticks)
  Sync time (average)   =    0.00 sec.
  Wait time (average)   =    0.00 sec.
                          ------------
Total (root+branch&cut) =    3.33 sec. (3082.13 ticks)

Solution pool: 1 solution saved.

MIP - Integer optimal, tolerance (0.01/1e-06):  Objective =  2.4009025608e+04
Current MIP best bound =  2.4169825624e+04 (gap = 160.8, 0.67%)
Solution time =    3.33 sec.  Iterations = 5811  Nodes = 0 (1)
Deterministic time = 3082.28 ticks  (926.17 ticks/sec)

CPLEX> Incumbent solution written to file 'C:\Users\Luke\Desktop\competitiveMPEC_1.16\logs\tmp7m4_0p9y.cplex.sol'.
CPLEX> NOTE: no warmstart specified for MIP iteration, default behavior is true
MIP
NOTE: resolving with all competitive generators using storage-only solution to warmstart
Solving...

Welcome to IBM(R) ILOG(R) CPLEX(R) Interactive Optimizer 12.9.0.0
  with Simplex, Mixed Integer & Barrier Optimizers
5725-A06 5725-A29 5724-Y48 5724-Y49 5724-Y54 5724-Y55 5655-Y21
Copyright IBM Corp. 1988, 2019.  All Rights Reserved.

Type 'help' for a list of available commands.
Type 'help' followed by a command name for more
information on commands.

CPLEX> Logfile 'cplex.log' closed.
Logfile 'C:\Users\Luke\Desktop\competitiveMPEC_1.16\logs\tmpuz4d9i1k.cplex.log' open.
CPLEX> New value for parallel optimization mode: -1
CPLEX> New value for mixed integer optimality gap tolerance: 0.01
CPLEX> New value for feasibility tolerance: 1e-05
CPLEX> New value for deterministic time limit in ticks: 250000
CPLEX> Problem 'C:\Users\Luke\Desktop\competitiveMPEC_1.16\logs\tmph6fmk7a0.pyomo.lp' read.
Read time = 0.19 sec. (13.86 ticks)
CPLEX> MIP start file 'C:\Users\Luke\Desktop\competitiveMPEC_1.16\logs\tmphkjxrq1b.cplex.mst' read.
CPLEX> Problem name         : C:\Users\Luke\Desktop\competitiveMPEC_1.16\logs\tmph6fmk7a0.pyomo.lp
Objective sense      : Maximize
Variables            :   53321  [Nneg: 49,  Box: 21806,  Free: 4368,
                                 Binary: 27098]
Objective nonzeros   :    8945
Linear constraints   :  122164  [Less: 40983,  Greater: 58612,  Equal: 22569]
  Nonzeros           :  288494
  RHS nonzeros       :   66971

Variables            : Min LB: -5000.000        Max UB: 5000.000       
Objective nonzeros   : Min   : 0.1000000        Max   : 722.0000       
Linear constraints   :
  Nonzeros           : Min   : 0.1000000        Max   : 2910000.       
  RHS nonzeros       : Min   : 0.1000000        Max   : 3000000.       
CPLEX> CPXPARAM_Parallel                                -1
CPXPARAM_Simplex_Tolerances_Feasibility          1.0000000000000001e-05
CPXPARAM_DetTimeLimit                            250000
CPXPARAM_MIP_Tolerances_MIPGap                   0.01
Warning:  No solution found from 1 MIP starts.
Retaining values of one MIP start for possible repair.
Tried aggregator 3 times.
MIP Presolve eliminated 88100 rows and 18948 columns.
MIP Presolve added 3342 rows and 0 columns.
MIP Presolve modified 24486 coefficients.
Aggregator did 12840 substitutions.
Reduced MIP has 24566 rows, 20969 columns, and 68847 nonzeros.
Reduced MIP has 8282 binaries, 0 generals, 0 SOSs, and 0 indicators.
Presolve time = 0.23 sec. (166.13 ticks)
Probing fixed 416 vars, tightened 6000 bounds.
Probing time = 0.05 sec. (20.76 ticks)
Tried aggregator 2 times.
MIP Presolve eliminated 932 rows and 837 columns.
MIP Presolve modified 3000 coefficients.
Aggregator did 44 substitutions.
Reduced MIP has 23590 rows, 20088 columns, and 66009 nonzeros.
Reduced MIP has 7864 binaries, 0 generals, 0 SOSs, and 0 indicators.
Presolve time = 0.11 sec. (91.47 ticks)
Probing fixed 0 vars, tightened 221 bounds.
Probing time = 0.08 sec. (21.52 ticks)
Clique table members: 38681.
MIP emphasis: balance optimality and feasibility.
MIP search method: dynamic search.
Parallel mode: opportunistic, using up to 24 threads.
Root relaxation solution time = 0.44 sec. (666.50 ticks)

        Nodes                                         Cuts/
   Node  Left     Objective  IInf  Best Integer    Best Bound    ItCnt     Gap

      0     0    91839.8801   214                  91839.8801     6425         
      0     0    88687.3508   105                   Cuts: 211     6629         
      0     0    88589.5844   100                    Cuts: 99     6670         
      0     0    88548.5414    96                    Cuts: 31     6702         
      0     0    88548.5414    91                    Cuts: 18     6715         
      0     0    88548.5414    89                    Cuts: 10     6721         
Repair heuristic found nothing.
      0     2    88548.5414    67                     Cuts: 6     6721         
Elapsed time = 5.16 sec. (3640.22 ticks, tree = 0.02 MB, solutions = 0)
    386   111    84619.5441    37                  87735.0390     7726         
    811   438    83638.8123    16                  87735.0390    12053         
   1203   781    77703.2379    33                  87735.0390    16718         
   1686  1320    67370.9542    28                  87735.0390    24499         
*  2140+  388                        85525.9044    87732.8761             2.58%
   2654   495    86967.4324    37    85525.9044    87732.8761    35747    2.58%
   3183   464    87095.4461    43    86333.7467    87732.8761    42580    1.62%
   3878   547    87198.7180    30    86333.7467    87732.8761    45977    1.62%
*  4250+  794                        86423.1964    87642.3681             1.41%
   4521   823        cutoff          86423.1964    87642.3681    50347    1.41%
*  5326   843      integral     0    86617.1341    87642.3681    54050    1.18%

Clique cuts applied:  8
Cover cuts applied:  25
Implied bound cuts applied:  19
Flow cuts applied:  125
Mixed integer rounding cuts applied:  4
Lift and project cuts applied:  1
Gomory fractional cuts applied:  32

Root node processing (before b&c):
  Real time             =    4.44 sec. (3581.01 ticks)
Parallel b&c, 24 threads:
  Real time             =    7.61 sec. (2734.21 ticks)
  Sync time (average)   =    0.40 sec.
  Wait time (average)   =    0.00 sec.
                          ------------
Total (root+branch&cut) =   12.05 sec. (6315.22 ticks)

Solution pool: 5 solutions saved.

MIP - Integer optimal, tolerance (0.01/1e-06):  Objective =  8.6617134055e+04
Current MIP best bound =  8.7410253944e+04 (gap = 793.12, 0.92%)
Solution time =   12.05 sec.  Iterations = 62156  Nodes = 5758 (1332)
Deterministic time = 6315.38 ticks  (524.23 ticks/sec)

CPLEX> Incumbent solution written to file 'C:\Users\Luke\Desktop\competitiveMPEC_1.16\logs\tmp2deom7vh.cplex.sol'.
CPLEX> Exporting results... 
